(set-info :smt-lib-version 2.6)
(set-logic QF_UFLIA)
(set-info :source |
   Wisconsin Safety Analyzer (WiSA) benchmarks translated to SMT format by Hossein Sheini
  |)
(set-info :category "industrial")
(set-info :status unsat)
(declare-fun arg0 () Int)
(declare-fun arg1 () Int)
(declare-fun fmt0 () Int)
(declare-fun fmt1 () Int)
(declare-fun distance () Int)
(declare-fun fmt_length () Int)
(declare-fun adr_lo () Int)
(declare-fun adr_medlo () Int)
(declare-fun adr_medhi () Int)
(declare-fun adr_hi () Int)
(declare-fun format (Int) Int)
(declare-fun percent () Int)
(declare-fun s () Int)
(declare-fun s_count (Int) Int)
(declare-fun x () Int)
(declare-fun x_count (Int) Int)
(assert (let ((?v_1 (+ fmt0 1)) (?v_0 (- (- fmt1 2) fmt0)) (?v_5 (format 0))) (let ((?v_12 (= ?v_5 percent)) (?v_6 (format 1))) (let ((?v_16 (= ?v_6 percent)) (?v_13 (= ?v_6 s)) (?v_39 (= ?v_6 x)) (?v_7 (format 2))) (let ((?v_20 (= ?v_7 percent)) (?v_17 (= ?v_7 s)) (?v_42 (= ?v_7 x)) (?v_8 (format 3))) (let ((?v_24 (= ?v_8 percent)) (?v_21 (= ?v_8 s)) (?v_45 (= ?v_8 x)) (?v_9 (format 4))) (let ((?v_28 (= ?v_9 percent)) (?v_25 (= ?v_9 s)) (?v_48 (= ?v_9 x)) (?v_10 (format 5))) (let ((?v_32 (= ?v_10 percent)) (?v_29 (= ?v_10 s)) (?v_51 (= ?v_10 x)) (?v_11 (format 6))) (let ((?v_36 (= ?v_11 percent)) (?v_33 (= ?v_11 s)) (?v_54 (= ?v_11 x)) (?v_14 (and ?v_12 ?v_13)) (?v_15 (s_count 0)) (?v_18 (and ?v_16 ?v_17)) (?v_19 (s_count 1)) (?v_22 (and ?v_20 ?v_21)) (?v_23 (s_count 2)) (?v_26 (and ?v_24 ?v_25)) (?v_27 (s_count 3)) (?v_30 (and ?v_28 ?v_29)) (?v_31 (s_count 4))) (let ((?v_34 (and ?v_32 ?v_33)) (?v_35 (s_count 5)) (?v_57 (format 7))) (let ((?v_37 (and ?v_36 (= ?v_57 s))) (?v_38 (s_count 6)) (?v_40 (and ?v_12 ?v_39)) (?v_41 (x_count 0)) (?v_43 (and ?v_16 ?v_42)) (?v_44 (x_count 1)) (?v_46 (and ?v_20 ?v_45)) (?v_47 (x_count 2)) (?v_49 (and ?v_24 ?v_48)) (?v_50 (x_count 3)) (?v_52 (and ?v_28 ?v_51)) (?v_53 (x_count 4)) (?v_55 (and ?v_32 ?v_54)) (?v_56 (x_count 5)) (?v_58 (and ?v_36 (= ?v_57 x))) (?v_59 (x_count 6)) (?v_2 (+ fmt0 0)) (?v_3 (+ fmt0 2)) (?v_4 (+ fmt0 3))) (not (=> (and (and (and (and (and (and (and (and (and (and (and (= distance 12) (= fmt_length 7)) (= adr_lo 3)) (= adr_medlo 4)) (= adr_medhi 5)) (= adr_hi 6)) (and (and (= percent 37) (= s 115)) (= x 120))) (and (and (and (and (and (and (and (= fmt0 0) (= arg0 (- fmt0 distance))) (>= arg1 fmt0)) (< fmt1 (+ fmt0 (- fmt_length 1)))) (> fmt1 ?v_1)) (>= arg1 (+ arg0 distance))) (< arg1 (+ arg0 (+ distance (- fmt_length 4))))) (= arg1 (+ (+ arg0 (* 4 (s_count ?v_0))) (* 4 (x_count ?v_0)))))) (and (or (or (or (or (or (or (= fmt1 ?v_2) (= fmt1 ?v_1)) (= fmt1 ?v_3)) (= fmt1 ?v_4)) (= fmt1 (+ fmt0 4))) (= fmt1 (+ fmt0 5))) (= fmt1 (+ fmt0 6))) (or (or (or (= arg1 ?v_2) (= arg1 ?v_1)) (= arg1 ?v_3)) (= arg1 ?v_4)))) (and (and (and (and (and (and (or (or (or (or (or (or (or ?v_12 (= ?v_5 s)) (= ?v_5 x)) (= ?v_5 3)) (= ?v_5 4)) (= ?v_5 5)) (= ?v_5 6)) (= ?v_5 255)) (or (or (or (or (or (or (or ?v_16 ?v_13) ?v_39) (= ?v_6 3)) (= ?v_6 4)) (= ?v_6 5)) (= ?v_6 6)) (= ?v_6 255))) (or (or (or (or (or (or (or ?v_20 ?v_17) ?v_42) (= ?v_7 3)) (= ?v_7 4)) (= ?v_7 5)) (= ?v_7 6)) (= ?v_7 255))) (or (or (or (or (or (or (or ?v_24 ?v_21) ?v_45) (= ?v_8 3)) (= ?v_8 4)) (= ?v_8 5)) (= ?v_8 6)) (= ?v_8 255))) (or (or (or (or (or (or (or ?v_28 ?v_25) ?v_48) (= ?v_9 3)) (= ?v_9 4)) (= ?v_9 5)) (= ?v_9 6)) (= ?v_9 255))) (or (or (or (or (or (or (or ?v_32 ?v_29) ?v_51) (= ?v_10 3)) (= ?v_10 4)) (= ?v_10 5)) (= ?v_10 6)) (= ?v_10 255))) (or (or (or (or (or (or (or ?v_36 ?v_33) ?v_54) (= ?v_11 3)) (= ?v_11 4)) (= ?v_11 5)) (= ?v_11 6)) (= ?v_11 255)))) (and (and (and (and (and (and (and (=> ?v_14 (= ?v_15 1)) (=> (not ?v_14) (= ?v_15 0))) (and (=> ?v_18 (= ?v_19 (+ ?v_15 1))) (=> (not ?v_18) (= ?v_19 ?v_15)))) (and (=> ?v_22 (= ?v_23 (+ ?v_19 1))) (=> (not ?v_22) (= ?v_23 ?v_19)))) (and (=> ?v_26 (= ?v_27 (+ ?v_23 1))) (=> (not ?v_26) (= ?v_27 ?v_23)))) (and (=> ?v_30 (= ?v_31 (+ ?v_27 1))) (=> (not ?v_30) (= ?v_31 ?v_27)))) (and (=> ?v_34 (= ?v_35 (+ ?v_31 1))) (=> (not ?v_34) (= ?v_35 ?v_31)))) (and (=> ?v_37 (= ?v_38 (+ ?v_35 1))) (=> (not ?v_37) (= ?v_38 ?v_35))))) (and (and (and (and (and (and (and (=> ?v_40 (= ?v_41 1)) (=> (not ?v_40) (= ?v_41 0))) (and (=> ?v_43 (= ?v_44 (+ ?v_41 1))) (=> (not ?v_43) (= ?v_44 ?v_41)))) (and (=> ?v_46 (= ?v_47 (+ ?v_44 1))) (=> (not ?v_46) (= ?v_47 ?v_44)))) (and (=> ?v_49 (= ?v_50 (+ ?v_47 1))) (=> (not ?v_49) (= ?v_50 ?v_47)))) (and (=> ?v_52 (= ?v_53 (+ ?v_50 1))) (=> (not ?v_52) (= ?v_53 ?v_50)))) (and (=> ?v_55 (= ?v_56 (+ ?v_53 1))) (=> (not ?v_55) (= ?v_56 ?v_53)))) (and (=> ?v_58 (= ?v_59 (+ ?v_56 1))) (=> (not ?v_58) (= ?v_59 ?v_56))))) (and (and (and (and (and (not (= (format fmt1) percent)) (= (format (+ fmt1 1)) s)) (= (format arg1) adr_lo)) (= (format (+ arg1 1)) adr_medlo)) (= (format (+ arg1 2)) adr_medhi)) (= (format (+ arg1 3)) adr_hi)))))))))))))))
(check-sat)
(exit)
